81
81
78
79
82
95
80
74
78
2074 (F)
72
69
72
1550(F)
71
96
67
168
94
169
73
522
93
105
79
422
157
95
100
119
81
168
87
57
51
66
44
47
55
41
40
39
38
39
36
35
34
33
32
31
30
29
28
27
26
25
24
23
22
21
20
19
18
17
16
15
14
13
12
11
10
